PARAMETER_FILE = even/LKH_uncomplete_graph/x5/nei/par/random133.par
PROBLEM_FILE = even/LKH_uncomplete_graph/x5/nei/mat/random133.tsp
Successes/Runs = 0/10
Cost.min = 869, Cost.avg = 869.00, Cost.max = 869
Gap.min = 0.0000%, Gap.avg = 0.0000%, Gap.max = 0.0000%
Trials.min = 1000, Trials.avg = 1000.0, Trials.max = 1000
Time.min = 2.08 sec., Time.avg = 2.39 sec., Time.max = 2.87 sec.
Time.total = 24.06 sec.
请按任意键继续. . . 
